; Compiling UnitDefs
(set-option :print-success true)
(set-option :produce-models true)
(set-option :interactive-mode true)
(set-option :produce-assertions true)
(set-option :produce-models true)
(set-option :produce-assignments true)
(set-option :produce-proofs true)
(set-option :produce-unsat-assumptions true)
(set-option :produce-unsat-cores true)
(declare-const one Int)
(assert
   (= one 1))
(declare-const
   base
   (Array String Int))
(declare-const
   enc
   (Array String Int))
(declare-const
   exp
   (Array String Int))
(assert
   (= enc base))
(echo "solver-start-cycle-1")
(echo "solver-finish-cycle-1")
(echo "solver-start-cycle-2")

; GIVENS (GHC style)
; []

; WANTEDS (GHC style)
; [WD] hole{co_a65u} {1}:: One
;                          ~ (Base "s" /: Base "s") (CNonCanonical)

; GIVENS (Thoralf style)
; []

; WANTEDS (Thoralf style)
; (One [],/: [Base ["s"],Base ["s"]])

(echo "givens-start-cycle-2")
; GIVENS (conversions)
;      [WD] hole{co_a65u} {1}:: One
;                               ~ (Base "s" /: Base "s") (CNonCanonical)
;  =>  (=
;    (
;      (as
;         const
;         (Array String Int))
;      0)
;    (
;      (_
;         map
;         (-
;            (Int Int)
;            Int))
;      (store base "s" one)
;      (store base "s" one)))

; GIVENS (names)
(push 1)
; DECS1 (seen) 
; DECS1 (unseen) 
(check-sat)
; sat
(echo "givens-finish-cycle-2")
(echo "wanteds-start-cycle-2")
; WANTEDS (conversions)
;      [WD] hole{co_a65u} {1}:: One
;                               ~ (Base "s" /: Base "s") (CNonCanonical)
;  =>  (=
;    (
;      (as
;         const
;         (Array String Int))
;      0)
;    (
;      (_
;         map
;         (-
;            (Int Int)
;            Int))
;      (store base "s" one)
;      (store base "s" one)))

; WANTEDS (names)
; DECS2 (seen) 
; DECS2 (unseen) 
(assert
   (!
      (not
         (=
            (
              (as
                 const
                 (Array String Int))
              0)
            (
              (_
                 map
                 (-
                    (Int Int)
                    Int))
              (store base "s" one)
              (store base "s" one))))
      :named
      wanted-2))
(check-sat)
; unsat
(echo "wanteds-finish-cycle-2")
(get-assertions)
; (
;   (= one 1)
;   (= enc base)
;   (!
;      (not
;         (=
;            (
;              (as
;                 const
;                 (Array String Int))
;              0)
;            (
;              (_
;                 map
;                 (-
;                    (Int Int)
;                    Int))
;              (store base "s" one)
;              (store base "s" one))))
;      :named
;      wanted-2))
(get-unsat-core)
; (wanted-2)
(pop 1)
(echo "solver-finish-cycle-2")
(echo "solver-start-cycle-3")
(echo "solver-finish-cycle-3")
(echo "solver-start-cycle-4")

; GIVENS (GHC style)
; []

; WANTEDS (GHC style)
; [WD] hole{co_a65W} {1}:: One
;                          ~ (Base "kg" /: Base "kg") (CNonCanonical)

; GIVENS (Thoralf style)
; []

; WANTEDS (Thoralf style)
; (One [],/: [Base ["kg"],Base ["kg"]])

(echo "givens-start-cycle-4")
; GIVENS (conversions)
;      [WD] hole{co_a65W} {1}:: One
;                               ~ (Base "kg" /: Base "kg") (CNonCanonical)
;  =>  (=
;    (
;      (as
;         const
;         (Array String Int))
;      0)
;    (
;      (_
;         map
;         (-
;            (Int Int)
;            Int))
;      (store base "kg" one)
;      (store base "kg" one)))

; GIVENS (names)
(push 1)
; DECS1 (seen) 
; DECS1 (unseen) 
(check-sat)
; sat
(echo "givens-finish-cycle-4")
(echo "wanteds-start-cycle-4")
; WANTEDS (conversions)
;      [WD] hole{co_a65W} {1}:: One
;                               ~ (Base "kg" /: Base "kg") (CNonCanonical)
;  =>  (=
;    (
;      (as
;         const
;         (Array String Int))
;      0)
;    (
;      (_
;         map
;         (-
;            (Int Int)
;            Int))
;      (store base "kg" one)
;      (store base "kg" one)))

; WANTEDS (names)
; DECS2 (seen) 
; DECS2 (unseen) 
(assert
   (!
      (not
         (=
            (
              (as
                 const
                 (Array String Int))
              0)
            (
              (_
                 map
                 (-
                    (Int Int)
                    Int))
              (store base "kg" one)
              (store base "kg" one))))
      :named
      wanted-4))
(check-sat)
; unsat
(echo "wanteds-finish-cycle-4")
(get-assertions)
; (
;   (= one 1)
;   (= enc base)
;   (!
;      (not
;         (=
;            (
;              (as
;                 const
;                 (Array String Int))
;              0)
;            (
;              (_
;                 map
;                 (-
;                    (Int Int)
;                    Int))
;              (store base "kg" one)
;              (store base "kg" one))))
;      :named
;      wanted-4))
(get-unsat-core)
; (wanted-4)
(pop 1)
(echo "solver-finish-cycle-4")
(echo "solver-start-cycle-5")
(echo "solver-finish-cycle-5")
(echo "solver-start-cycle-6")

; GIVENS (GHC style)
; []

; WANTEDS (GHC style)
; [WD] hole{co_a66o} {1}:: One
;                          ~ (Base "m" /: Base "m") (CNonCanonical)

; GIVENS (Thoralf style)
; []

; WANTEDS (Thoralf style)
; (One [],/: [Base ["m"],Base ["m"]])

(echo "givens-start-cycle-6")
; GIVENS (conversions)
;      [WD] hole{co_a66o} {1}:: One
;                               ~ (Base "m" /: Base "m") (CNonCanonical)
;  =>  (=
;    (
;      (as
;         const
;         (Array String Int))
;      0)
;    (
;      (_
;         map
;         (-
;            (Int Int)
;            Int))
;      (store base "m" one)
;      (store base "m" one)))

; GIVENS (names)
(push 1)
; DECS1 (seen) 
; DECS1 (unseen) 
(check-sat)
; sat
(echo "givens-finish-cycle-6")
(echo "wanteds-start-cycle-6")
; WANTEDS (conversions)
;      [WD] hole{co_a66o} {1}:: One
;                               ~ (Base "m" /: Base "m") (CNonCanonical)
;  =>  (=
;    (
;      (as
;         const
;         (Array String Int))
;      0)
;    (
;      (_
;         map
;         (-
;            (Int Int)
;            Int))
;      (store base "m" one)
;      (store base "m" one)))

; WANTEDS (names)
; DECS2 (seen) 
; DECS2 (unseen) 
(assert
   (!
      (not
         (=
            (
              (as
                 const
                 (Array String Int))
              0)
            (
              (_
                 map
                 (-
                    (Int Int)
                    Int))
              (store base "m" one)
              (store base "m" one))))
      :named
      wanted-6))
(check-sat)
; unsat
(echo "wanteds-finish-cycle-6")
(get-assertions)
; (
;   (= one 1)
;   (= enc base)
;   (!
;      (not
;         (=
;            (
;              (as
;                 const
;                 (Array String Int))
;              0)
;            (
;              (_
;                 map
;                 (-
;                    (Int Int)
;                    Int))
;              (store base "m" one)
;              (store base "m" one))))
;      :named
;      wanted-6))
(get-unsat-core)
; (wanted-6)
(pop 1)
(echo "solver-finish-cycle-6")
(exit)
(set-option :print-success true)
(set-option :produce-models true)
(set-option :interactive-mode true)
(set-option :produce-assertions true)
(set-option :produce-models true)
(set-option :produce-assignments true)
(set-option :produce-proofs true)
(set-option :produce-unsat-assumptions true)
(set-option :produce-unsat-cores true)
(declare-const one Int)
(assert
   (= one 1))
(declare-const
   base
   (Array String Int))
(declare-const
   enc
   (Array String Int))
(declare-const
   exp
   (Array String Int))
(assert
   (= enc base))
(exit)
(set-option :print-success true)
(set-option :produce-models true)
(set-option :interactive-mode true)
(set-option :produce-assertions true)
(set-option :produce-models true)
(set-option :produce-assignments true)
(set-option :produce-proofs true)
(set-option :produce-unsat-assumptions true)
(set-option :produce-unsat-cores true)
(declare-const one Int)
(assert
   (= one 1))
(declare-const
   base
   (Array String Int))
(declare-const
   enc
   (Array String Int))
(declare-const
   exp
   (Array String Int))
(assert
   (= enc base))
(exit)
(set-option :print-success true)
(set-option :produce-models true)
(set-option :interactive-mode true)
(set-option :produce-assertions true)
(set-option :produce-models true)
(set-option :produce-assignments true)
(set-option :produce-proofs true)
(set-option :produce-unsat-assumptions true)
(set-option :produce-unsat-cores true)
(declare-const one Int)
(assert
   (= one 1))
(declare-const
   base
   (Array String Int))
(declare-const
   enc
   (Array String Int))
(declare-const
   exp
   (Array String Int))
(assert
   (= enc base))
(exit)
(set-option :print-success true)
(set-option :produce-models true)
(set-option :interactive-mode true)
(set-option :produce-assertions true)
(set-option :produce-models true)
(set-option :produce-assignments true)
(set-option :produce-proofs true)
(set-option :produce-unsat-assumptions true)
(set-option :produce-unsat-cores true)
(declare-const one Int)
(assert
   (= one 1))
(declare-const
   base
   (Array String Int))
(declare-const
   enc
   (Array String Int))
(declare-const
   exp
   (Array String Int))
(assert
   (= enc base))
(exit)
(set-option :print-success true)
(set-option :produce-models true)
(set-option :interactive-mode true)
(set-option :produce-assertions true)
(set-option :produce-models true)
(set-option :produce-assignments true)
(set-option :produce-proofs true)
(set-option :produce-unsat-assumptions true)
(set-option :produce-unsat-cores true)
(declare-const one Int)
(assert
   (= one 1))
(declare-const
   base
   (Array String Int))
(declare-const
   enc
   (Array String Int))
(declare-const
   exp
   (Array String Int))
(assert
   (= enc base))
(exit)
(set-option :print-success true)
(set-option :produce-models true)
(set-option :interactive-mode true)
(set-option :produce-assertions true)
(set-option :produce-models true)
(set-option :produce-assignments true)
(set-option :produce-proofs true)
(set-option :produce-unsat-assumptions true)
(set-option :produce-unsat-cores true)
(declare-const one Int)
(assert
   (= one 1))
(declare-const
   base
   (Array String Int))
(declare-const
   enc
   (Array String Int))
(declare-const
   exp
   (Array String Int))
(assert
   (= enc base))
(exit)
(set-option :print-success true)
(set-option :produce-models true)
(set-option :interactive-mode true)
(set-option :produce-assertions true)
(set-option :produce-models true)
(set-option :produce-assignments true)
(set-option :produce-proofs true)
(set-option :produce-unsat-assumptions true)
(set-option :produce-unsat-cores true)
(declare-const one Int)
(assert
   (= one 1))
(declare-const
   base
   (Array String Int))
(declare-const
   enc
   (Array String Int))
(declare-const
   exp
   (Array String Int))
(assert
   (= enc base))
(exit)
(set-option :print-success true)
(set-option :produce-models true)
(set-option :interactive-mode true)
(set-option :produce-assertions true)
(set-option :produce-models true)
(set-option :produce-assignments true)
(set-option :produce-proofs true)
(set-option :produce-unsat-assumptions true)
(set-option :produce-unsat-cores true)
(declare-const one Int)
(assert
   (= one 1))
(declare-const
   base
   (Array String Int))
(declare-const
   enc
   (Array String Int))
(declare-const
   exp
   (Array String Int))
(assert
   (= enc base))
(exit)
(set-option :print-success true)
(set-option :produce-models true)
(set-option :interactive-mode true)
(set-option :produce-assertions true)
(set-option :produce-models true)
(set-option :produce-assignments true)
(set-option :produce-proofs true)
(set-option :produce-unsat-assumptions true)
(set-option :produce-unsat-cores true)
(declare-const one Int)
(assert
   (= one 1))
(declare-const
   base
   (Array String Int))
(declare-const
   enc
   (Array String Int))
(declare-const
   exp
   (Array String Int))
(assert
   (= enc base))
(exit)
(set-option :print-success true)
(set-option :produce-models true)
(set-option :interactive-mode true)
(set-option :produce-assertions true)
(set-option :produce-models true)
(set-option :produce-assignments true)
(set-option :produce-proofs true)
(set-option :produce-unsat-assumptions true)
(set-option :produce-unsat-cores true)
(declare-const one Int)
(assert
   (= one 1))
(declare-const
   base
   (Array String Int))
(declare-const
   enc
   (Array String Int))
(declare-const
   exp
   (Array String Int))
(assert
   (= enc base))
(exit)
(set-option :print-success true)
(set-option :produce-models true)
(set-option :interactive-mode true)
(set-option :produce-assertions true)
(set-option :produce-models true)
(set-option :produce-assignments true)
(set-option :produce-proofs true)
(set-option :produce-unsat-assumptions true)
(set-option :produce-unsat-cores true)
(declare-const one Int)
(assert
   (= one 1))
(declare-const
   base
   (Array String Int))
(declare-const
   enc
   (Array String Int))
(declare-const
   exp
   (Array String Int))
(assert
   (= enc base))
(exit)
(set-option :print-success true)
(set-option :produce-models true)
(set-option :interactive-mode true)
(set-option :produce-assertions true)
(set-option :produce-models true)
(set-option :produce-assignments true)
(set-option :produce-proofs true)
(set-option :produce-unsat-assumptions true)
(set-option :produce-unsat-cores true)
(declare-const one Int)
(assert
   (= one 1))
(declare-const
   base
   (Array String Int))
(declare-const
   enc
   (Array String Int))
(declare-const
   exp
   (Array String Int))
(assert
   (= enc base))
(exit)
(set-option :print-success true)
(set-option :produce-models true)
(set-option :interactive-mode true)
(set-option :produce-assertions true)
(set-option :produce-models true)
(set-option :produce-assignments true)
(set-option :produce-proofs true)
(set-option :produce-unsat-assumptions true)
(set-option :produce-unsat-cores true)
(declare-const one Int)
(assert
   (= one 1))
(declare-const
   base
   (Array String Int))
(declare-const
   enc
   (Array String Int))
(declare-const
   exp
   (Array String Int))
(assert
   (= enc base))
(exit)
(set-option :print-success true)
(set-option :produce-models true)
(set-option :interactive-mode true)
(set-option :produce-assertions true)
(set-option :produce-models true)
(set-option :produce-assignments true)
(set-option :produce-proofs true)
(set-option :produce-unsat-assumptions true)
(set-option :produce-unsat-cores true)
(declare-const one Int)
(assert
   (= one 1))
(declare-const
   base
   (Array String Int))
(declare-const
   enc
   (Array String Int))
(declare-const
   exp
   (Array String Int))
(assert
   (= enc base))
(exit)
(set-option :print-success true)
(set-option :produce-models true)
(set-option :interactive-mode true)
(set-option :produce-assertions true)
(set-option :produce-models true)
(set-option :produce-assignments true)
(set-option :produce-proofs true)
(set-option :produce-unsat-assumptions true)
(set-option :produce-unsat-cores true)
(declare-const one Int)
(assert
   (= one 1))
(declare-const
   base
   (Array String Int))
(declare-const
   enc
   (Array String Int))
(declare-const
   exp
   (Array String Int))
(assert
   (= enc base))
(exit)
; Compiling Main
(set-option :print-success true)
(set-option :produce-models true)
(set-option :interactive-mode true)
(set-option :produce-assertions true)
(set-option :produce-models true)
(set-option :produce-assignments true)
(set-option :produce-proofs true)
(set-option :produce-unsat-assumptions true)
(set-option :produce-unsat-cores true)
(declare-const one Int)
(assert
   (= one 1))
(declare-const
   base
   (Array String Int))
(declare-const
   enc
   (Array String Int))
(declare-const
   exp
   (Array String Int))
(assert
   (= enc base))
(echo "solver-start-cycle-1")
(echo "solver-finish-cycle-1")
(echo "solver-start-cycle-2")
(echo "solver-finish-cycle-2")
(exit)
(set-option :print-success true)
(set-option :produce-models true)
(set-option :interactive-mode true)
(set-option :produce-assertions true)
(set-option :produce-models true)
(set-option :produce-assignments true)
(set-option :produce-proofs true)
(set-option :produce-unsat-assumptions true)
(set-option :produce-unsat-cores true)
(declare-const one Int)
(assert
   (= one 1))
(declare-const
   base
   (Array String Int))
(declare-const
   enc
   (Array String Int))
(declare-const
   exp
   (Array String Int))
(assert
   (= enc base))
(exit)
(set-option :print-success true)
(set-option :produce-models true)
(set-option :interactive-mode true)
(set-option :produce-assertions true)
(set-option :produce-models true)
(set-option :produce-assignments true)
(set-option :produce-proofs true)
(set-option :produce-unsat-assumptions true)
(set-option :produce-unsat-cores true)
(declare-const one Int)
(assert
   (= one 1))
(declare-const
   base
   (Array String Int))
(declare-const
   enc
   (Array String Int))
(declare-const
   exp
   (Array String Int))
(assert
   (= enc base))
(exit)
(set-option :print-success true)
(set-option :produce-models true)
(set-option :interactive-mode true)
(set-option :produce-assertions true)
(set-option :produce-models true)
(set-option :produce-assignments true)
(set-option :produce-proofs true)
(set-option :produce-unsat-assumptions true)
(set-option :produce-unsat-cores true)
(declare-const one Int)
(assert
   (= one 1))
(declare-const
   base
   (Array String Int))
(declare-const
   enc
   (Array String Int))
(declare-const
   exp
   (Array String Int))
(assert
   (= enc base))
(exit)
(set-option :print-success true)
(set-option :produce-models true)
(set-option :interactive-mode true)
(set-option :produce-assertions true)
(set-option :produce-models true)
(set-option :produce-assignments true)
(set-option :produce-proofs true)
(set-option :produce-unsat-assumptions true)
(set-option :produce-unsat-cores true)
(declare-const one Int)
(assert
   (= one 1))
(declare-const
   base
   (Array String Int))
(declare-const
   enc
   (Array String Int))
(declare-const
   exp
   (Array String Int))
(assert
   (= enc base))
(exit)
(set-option :print-success true)
(set-option :produce-models true)
(set-option :interactive-mode true)
(set-option :produce-assertions true)
(set-option :produce-models true)
(set-option :produce-assignments true)
(set-option :produce-proofs true)
(set-option :produce-unsat-assumptions true)
(set-option :produce-unsat-cores true)
(declare-const one Int)
(assert
   (= one 1))
(declare-const
   base
   (Array String Int))
(declare-const
   enc
   (Array String Int))
(declare-const
   exp
   (Array String Int))
(assert
   (= enc base))
(exit)
(set-option :print-success true)
(set-option :produce-models true)
(set-option :interactive-mode true)
(set-option :produce-assertions true)
(set-option :produce-models true)
(set-option :produce-assignments true)
(set-option :produce-proofs true)
(set-option :produce-unsat-assumptions true)
(set-option :produce-unsat-cores true)
(declare-const one Int)
(assert
   (= one 1))
(declare-const
   base
   (Array String Int))
(declare-const
   enc
   (Array String Int))
(declare-const
   exp
   (Array String Int))
(assert
   (= enc base))
(exit)
(set-option :print-success true)
(set-option :produce-models true)
(set-option :interactive-mode true)
(set-option :produce-assertions true)
(set-option :produce-models true)
(set-option :produce-assignments true)
(set-option :produce-proofs true)
(set-option :produce-unsat-assumptions true)
(set-option :produce-unsat-cores true)
(declare-const one Int)
(assert
   (= one 1))
(declare-const
   base
   (Array String Int))
(declare-const
   enc
   (Array String Int))
(declare-const
   exp
   (Array String Int))
(assert
   (= enc base))
(exit)
(set-option :print-success true)
(set-option :produce-models true)
(set-option :interactive-mode true)
(set-option :produce-assertions true)
(set-option :produce-models true)
(set-option :produce-assignments true)
(set-option :produce-proofs true)
(set-option :produce-unsat-assumptions true)
(set-option :produce-unsat-cores true)
(declare-const one Int)
(assert
   (= one 1))
(declare-const
   base
   (Array String Int))
(declare-const
   enc
   (Array String Int))
(declare-const
   exp
   (Array String Int))
(assert
   (= enc base))
(exit)
(set-option :print-success true)
(set-option :produce-models true)
(set-option :interactive-mode true)
(set-option :produce-assertions true)
(set-option :produce-models true)
(set-option :produce-assignments true)
(set-option :produce-proofs true)
(set-option :produce-unsat-assumptions true)
(set-option :produce-unsat-cores true)
(declare-const one Int)
(assert
   (= one 1))
(declare-const
   base
   (Array String Int))
(declare-const
   enc
   (Array String Int))
(declare-const
   exp
   (Array String Int))
(assert
   (= enc base))
(exit)
(set-option :print-success true)
(set-option :produce-models true)
(set-option :interactive-mode true)
(set-option :produce-assertions true)
(set-option :produce-models true)
(set-option :produce-assignments true)
(set-option :produce-proofs true)
(set-option :produce-unsat-assumptions true)
(set-option :produce-unsat-cores true)
(declare-const one Int)
(assert
   (= one 1))
(declare-const
   base
   (Array String Int))
(declare-const
   enc
   (Array String Int))
(declare-const
   exp
   (Array String Int))
(assert
   (= enc base))
(exit)
(set-option :print-success true)
(set-option :produce-models true)
(set-option :interactive-mode true)
(set-option :produce-assertions true)
(set-option :produce-models true)
(set-option :produce-assignments true)
(set-option :produce-proofs true)
(set-option :produce-unsat-assumptions true)
(set-option :produce-unsat-cores true)
(declare-const one Int)
(assert
   (= one 1))
(declare-const
   base
   (Array String Int))
(declare-const
   enc
   (Array String Int))
(declare-const
   exp
   (Array String Int))
(assert
   (= enc base))
(exit)
(set-option :print-success true)
(set-option :produce-models true)
(set-option :interactive-mode true)
(set-option :produce-assertions true)
(set-option :produce-models true)
(set-option :produce-assignments true)
(set-option :produce-proofs true)
(set-option :produce-unsat-assumptions true)
(set-option :produce-unsat-cores true)
(declare-const one Int)
(assert
   (= one 1))
(declare-const
   base
   (Array String Int))
(declare-const
   enc
   (Array String Int))
(declare-const
   exp
   (Array String Int))
(assert
   (= enc base))
(exit)
(set-option :print-success true)
(set-option :produce-models true)
(set-option :interactive-mode true)
(set-option :produce-assertions true)
(set-option :produce-models true)
(set-option :produce-assignments true)
(set-option :produce-proofs true)
(set-option :produce-unsat-assumptions true)
(set-option :produce-unsat-cores true)
(declare-const one Int)
(assert
   (= one 1))
(declare-const
   base
   (Array String Int))
(declare-const
   enc
   (Array String Int))
(declare-const
   exp
   (Array String Int))
(assert
   (= enc base))
(exit)
(set-option :print-success true)
(set-option :produce-models true)
(set-option :interactive-mode true)
(set-option :produce-assertions true)
(set-option :produce-models true)
(set-option :produce-assignments true)
(set-option :produce-proofs true)
(set-option :produce-unsat-assumptions true)
(set-option :produce-unsat-cores true)
(declare-const one Int)
(assert
   (= one 1))
(declare-const
   base
   (Array String Int))
(declare-const
   enc
   (Array String Int))
(declare-const
   exp
   (Array String Int))
(assert
   (= enc base))
(exit)
(set-option :print-success true)
(set-option :produce-models true)
(set-option :interactive-mode true)
(set-option :produce-assertions true)
(set-option :produce-models true)
(set-option :produce-assignments true)
(set-option :produce-proofs true)
(set-option :produce-unsat-assumptions true)
(set-option :produce-unsat-cores true)
(declare-const one Int)
(assert
   (= one 1))
(declare-const
   base
   (Array String Int))
(declare-const
   enc
   (Array String Int))
(declare-const
   exp
   (Array String Int))
(assert
   (= enc base))
(exit)
(set-option :print-success true)
(set-option :produce-models true)
(set-option :interactive-mode true)
(set-option :produce-assertions true)
(set-option :produce-models true)
(set-option :produce-assignments true)
(set-option :produce-proofs true)
(set-option :produce-unsat-assumptions true)
(set-option :produce-unsat-cores true)
(declare-const one Int)
(assert
   (= one 1))
(declare-const
   base
   (Array String Int))
(declare-const
   enc
   (Array String Int))
(declare-const
   exp
   (Array String Int))
(assert
   (= enc base))
(exit)
(set-option :print-success true)
(set-option :produce-models true)
(set-option :interactive-mode true)
(set-option :produce-assertions true)
(set-option :produce-models true)
(set-option :produce-assignments true)
(set-option :produce-proofs true)
(set-option :produce-unsat-assumptions true)
(set-option :produce-unsat-cores true)
(declare-const one Int)
(assert
   (= one 1))
(declare-const
   base
   (Array String Int))
(declare-const
   enc
   (Array String Int))
(declare-const
   exp
   (Array String Int))
(assert
   (= enc base))
(exit)
(set-option :print-success true)
(set-option :produce-models true)
(set-option :interactive-mode true)
(set-option :produce-assertions true)
(set-option :produce-models true)
(set-option :produce-assignments true)
(set-option :produce-proofs true)
(set-option :produce-unsat-assumptions true)
(set-option :produce-unsat-cores true)
(declare-const one Int)
(assert
   (= one 1))
(declare-const
   base
   (Array String Int))
(declare-const
   enc
   (Array String Int))
(declare-const
   exp
   (Array String Int))
(assert
   (= enc base))
(exit)
(set-option :print-success true)
(set-option :produce-models true)
(set-option :interactive-mode true)
(set-option :produce-assertions true)
(set-option :produce-models true)
(set-option :produce-assignments true)
(set-option :produce-proofs true)
(set-option :produce-unsat-assumptions true)
(set-option :produce-unsat-cores true)
(declare-const one Int)
(assert
   (= one 1))
(declare-const
   base
   (Array String Int))
(declare-const
   enc
   (Array String Int))
(declare-const
   exp
   (Array String Int))
(assert
   (= enc base))
(exit)
(set-option :print-success true)
(set-option :produce-models true)
(set-option :interactive-mode true)
(set-option :produce-assertions true)
(set-option :produce-models true)
(set-option :produce-assignments true)
(set-option :produce-proofs true)
(set-option :produce-unsat-assumptions true)
(set-option :produce-unsat-cores true)
(declare-const one Int)
(assert
   (= one 1))
(declare-const
   base
   (Array String Int))
(declare-const
   enc
   (Array String Int))
(declare-const
   exp
   (Array String Int))
(assert
   (= enc base))
(exit)
(set-option :print-success true)
(set-option :produce-models true)
(set-option :interactive-mode true)
(set-option :produce-assertions true)
(set-option :produce-models true)
(set-option :produce-assignments true)
(set-option :produce-proofs true)
(set-option :produce-unsat-assumptions true)
(set-option :produce-unsat-cores true)
(declare-const one Int)
(assert
   (= one 1))
(declare-const
   base
   (Array String Int))
(declare-const
   enc
   (Array String Int))
(declare-const
   exp
   (Array String Int))
(assert
   (= enc base))
(exit)
(set-option :print-success true)
(set-option :produce-models true)
(set-option :interactive-mode true)
(set-option :produce-assertions true)
(set-option :produce-models true)
(set-option :produce-assignments true)
(set-option :produce-proofs true)
(set-option :produce-unsat-assumptions true)
(set-option :produce-unsat-cores true)
(declare-const one Int)
(assert
   (= one 1))
(declare-const
   base
   (Array String Int))
(declare-const
   enc
   (Array String Int))
(declare-const
   exp
   (Array String Int))
(assert
   (= enc base))
(exit)
(set-option :print-success true)
(set-option :produce-models true)
(set-option :interactive-mode true)
(set-option :produce-assertions true)
(set-option :produce-models true)
(set-option :produce-assignments true)
(set-option :produce-proofs true)
(set-option :produce-unsat-assumptions true)
(set-option :produce-unsat-cores true)
(declare-const one Int)
(assert
   (= one 1))
(declare-const
   base
   (Array String Int))
(declare-const
   enc
   (Array String Int))
(declare-const
   exp
   (Array String Int))
(assert
   (= enc base))
(exit)
(set-option :print-success true)
(set-option :produce-models true)
(set-option :interactive-mode true)
(set-option :produce-assertions true)
(set-option :produce-models true)
(set-option :produce-assignments true)
(set-option :produce-proofs true)
(set-option :produce-unsat-assumptions true)
(set-option :produce-unsat-cores true)
(declare-const one Int)
(assert
   (= one 1))
(declare-const
   base
   (Array String Int))
(declare-const
   enc
   (Array String Int))
(declare-const
   exp
   (Array String Int))
(assert
   (= enc base))
(exit)
(set-option :print-success true)
(set-option :produce-models true)
(set-option :interactive-mode true)
(set-option :produce-assertions true)
(set-option :produce-models true)
(set-option :produce-assignments true)
(set-option :produce-proofs true)
(set-option :produce-unsat-assumptions true)
(set-option :produce-unsat-cores true)
(declare-const one Int)
(assert
   (= one 1))
(declare-const
   base
   (Array String Int))
(declare-const
   enc
   (Array String Int))
(declare-const
   exp
   (Array String Int))
(assert
   (= enc base))
(exit)
(set-option :print-success true)
(set-option :produce-models true)
(set-option :interactive-mode true)
(set-option :produce-assertions true)
(set-option :produce-models true)
(set-option :produce-assignments true)
(set-option :produce-proofs true)
(set-option :produce-unsat-assumptions true)
(set-option :produce-unsat-cores true)
(declare-const one Int)
(assert
   (= one 1))
(declare-const
   base
   (Array String Int))
(declare-const
   enc
   (Array String Int))
(declare-const
   exp
   (Array String Int))
(assert
   (= enc base))
(exit)
(set-option :print-success true)
(set-option :produce-models true)
(set-option :interactive-mode true)
(set-option :produce-assertions true)
(set-option :produce-models true)
(set-option :produce-assignments true)
(set-option :produce-proofs true)
(set-option :produce-unsat-assumptions true)
(set-option :produce-unsat-cores true)
(declare-const one Int)
(assert
   (= one 1))
(declare-const
   base
   (Array String Int))
(declare-const
   enc
   (Array String Int))
(declare-const
   exp
   (Array String Int))
(assert
   (= enc base))
(exit)
(set-option :print-success true)
(set-option :produce-models true)
(set-option :interactive-mode true)
(set-option :produce-assertions true)
(set-option :produce-models true)
(set-option :produce-assignments true)
(set-option :produce-proofs true)
(set-option :produce-unsat-assumptions true)
(set-option :produce-unsat-cores true)
(declare-const one Int)
(assert
   (= one 1))
(declare-const
   base
   (Array String Int))
(declare-const
   enc
   (Array String Int))
(declare-const
   exp
   (Array String Int))
(assert
   (= enc base))
(exit)
(set-option :print-success true)
(set-option :produce-models true)
(set-option :interactive-mode true)
(set-option :produce-assertions true)
(set-option :produce-models true)
(set-option :produce-assignments true)
(set-option :produce-proofs true)
(set-option :produce-unsat-assumptions true)
(set-option :produce-unsat-cores true)
(declare-const one Int)
(assert
   (= one 1))
(declare-const
   base
   (Array String Int))
(declare-const
   enc
   (Array String Int))
(declare-const
   exp
   (Array String Int))
(assert
   (= enc base))
(exit)
(set-option :print-success true)
(set-option :produce-models true)
(set-option :interactive-mode true)
(set-option :produce-assertions true)
(set-option :produce-models true)
(set-option :produce-assignments true)
(set-option :produce-proofs true)
(set-option :produce-unsat-assumptions true)
(set-option :produce-unsat-cores true)
(declare-const one Int)
(assert
   (= one 1))
(declare-const
   base
   (Array String Int))
(declare-const
   enc
   (Array String Int))
(declare-const
   exp
   (Array String Int))
(assert
   (= enc base))
(exit)
(set-option :print-success true)
(set-option :produce-models true)
(set-option :interactive-mode true)
(set-option :produce-assertions true)
(set-option :produce-models true)
(set-option :produce-assignments true)
(set-option :produce-proofs true)
(set-option :produce-unsat-assumptions true)
(set-option :produce-unsat-cores true)
(declare-const one Int)
(assert
   (= one 1))
(declare-const
   base
   (Array String Int))
(declare-const
   enc
   (Array String Int))
(declare-const
   exp
   (Array String Int))
(assert
   (= enc base))
(exit)
